certificates/rado_a15_c5_N186.cnf
c Rad2 upper bound instance: x1 + 15*x2 - x3 = 5, interval [1,186]
p cnf 186 2244
1 11 0
-1 -11 0
1 2 26 0
-1 -2 -26 0
1 3 41 0
-1 -3 -41 0
1 4 56 0
-1 -4 -56 0
1 5 71 0
-1 -5 -71 0
1 6 86 0
-1 -6 -86 0
1 7 101 0
-1 -7 -101 0
1 8 116 0
-1 -8 -116 0
1 9 131 0
-1 -9 -131 0
1 10 146 0
-1 -10 -146 0
1 11 161 0
-1 -11 -161 0
1 12 176 0
-1 -12 -176 0
1 2 12 0
-1 -2 -12 0
2 27 0
-2 -27 0
2 3 42 0
-2 -3 -42 0
2 4 57 0
-2 -4 -57 0
2 5 72 0
-2 -5 -72 0
2 6 87 0
-2 -6 -87 0
2 7 102 0
-2 -7 -102 0
2 8 117 0
-2 -8 -117 0
2 9 132 0
-2 -9 -132 0
2 10 147 0
-2 -10 -147 0
2 11 162 0
-2 -11 -162 0
2 12 177 0
-2 -12 -177 0
1 3 13 0
-1 -3 -13 0
2 3 28 0
-2 -3 -28 0
3 43 0
-3 -43 0
3 4 58 0
-3 -4 -58 0
3 5 73 0
-3 -5 -73 0
3 6 88 0
-3 -6 -88 0
3 7 103 0
-3 -7 -103 0
3 8 118 0
-3 -8 -118 0
3 9 133 0
-3 -9 -133 0
3 10 148 0
-3 -10 -148 0
3 11 163 0
-3 -11 -163 0
3 12 178 0
-3 -12 -178 0
1 4 14 0
-1 -4 -14 0
2 4 29 0
-2 -4 -29 0
3 4 44 0
-3 -4 -44 0
4 59 0
-4 -59 0
4 5 74 0
-4 -5 -74 0
4 6 89 0
-4 -6 -89 0
4 7 104 0
-4 -7 -104 0
4 8 119 0
-4 -8 -119 0
4 9 134 0
-4 -9 -134 0
4 10 149 0
-4 -10 -149 0
4 11 164 0
-4 -11 -164 0
4 12 179 0
-4 -12 -179 0
1 5 15 0
-1 -5 -15 0
2 5 30 0
-2 -5 -30 0
3 5 45 0
-3 -5 -45 0
4 5 60 0
-4 -5 -60 0
5 75 0
-5 -75 0
5 6 90 0
-5 -6 -90 0
5 7 105 0
-5 -7 -105 0
5 8 120 0
-5 -8 -120 0
5 9 135 0
-5 -9 -135 0
5 10 150 0
-5 -10 -150 0
5 11 165 0
-5 -11 -165 0
5 12 180 0
-5 -12 -180 0
1 6 16 0
-1 -6 -16 0
2 6 31 0
-2 -6 -31 0
3 6 46 0
-3 -6 -46 0
4 6 61 0
-4 -6 -61 0
5 6 76 0
-5 -6 -76 0
6 91 0
-6 -91 0
6 7 106 0
-6 -7 -106 0
6 8 121 0
-6 -8 -121 0
6 9 136 0
-6 -9 -136 0
6 10 151 0
-6 -10 -151 0
6 11 166 0
-6 -11 -166 0
6 12 181 0
-6 -12 -181 0
1 7 17 0
-1 -7 -17 0
2 7 32 0
-2 -7 -32 0
3 7 47 0
-3 -7 -47 0
4 7 62 0
-4 -7 -62 0
5 7 77 0
-5 -7 -77 0
6 7 92 0
-6 -7 -92 0
7 107 0
-7 -107 0
7 8 122 0
-7 -8 -122 0
7 9 137 0
-7 -9 -137 0
7 10 152 0
-7 -10 -152 0
7 11 167 0
-7 -11 -167 0
7 12 182 0
-7 -12 -182 0
1 8 18 0
-1 -8 -18 0
2 8 33 0
-2 -8 -33 0
3 8 48 0
-3 -8 -48 0
4 8 63 0
-4 -8 -63 0
5 8 78 0
-5 -8 -78 0
6 8 93 0
-6 -8 -93 0
7 8 108 0
-7 -8 -108 0
8 123 0
-8 -123 0
8 9 138 0
-8 -9 -138 0
8 10 153 0
-8 -10 -153 0
8 11 168 0
-8 -11 -168 0
8 12 183 0
-8 -12 -183 0
1 9 19 0
-1 -9 -19 0
2 9 34 0
-2 -9 -34 0
3 9 49 0
-3 -9 -49 0
4 9 64 0
-4 -9 -64 0
5 9 79 0
-5 -9 -79 0
6 9 94 0
-6 -9 -94 0
7 9 109 0
-7 -9 -109 0
8 9 124 0
-8 -9 -124 0
9 139 0
-9 -139 0
9 10 154 0
-9 -10 -154 0
9 11 169 0
-9 -11 -169 0
9 12 184 0
-9 -12 -184 0
1 10 20 0
-1 -10 -20 0
2 10 35 0
-2 -10 -35 0
3 10 50 0
-3 -10 -50 0
4 10 65 0
-4 -10 -65 0
5 10 80 0
-5 -10 -80 0
6 10 95 0
-6 -10 -95 0
7 10 110 0
-7 -10 -110 0
8 10 125 0
-8 -10 -125 0
9 10 140 0
-9 -10 -140 0
10 155 0
-10 -155 0
10 11 170 0
-10 -11 -170 0
10 12 185 0
-10 -12 -185 0
1 11 21 0
-1 -11 -21 0
2 11 36 0
-2 -11 -36 0
3 11 51 0
-3 -11 -51 0
4 11 66 0
-4 -11 -66 0
5 11 81 0
-5 -11 -81 0
6 11 96 0
-6 -11 -96 0
7 11 111 0
-7 -11 -111 0
8 11 126 0
-8 -11 -126 0
9 11 141 0
-9 -11 -141 0
10 11 156 0
-10 -11 -156 0
11 171 0
-11 -171 0
11 12 186 0
-11 -12 -186 0
1 12 22 0
-1 -12 -22 0
2 12 37 0
-2 -12 -37 0
3 12 52 0
-3 -12 -52 0
4 12 67 0
-4 -12 -67 0
5 12 82 0
-5 -12 -82 0
6 12 97 0
-6 -12 -97 0
7 12 112 0
-7 -12 -112 0
8 12 127 0
-8 -12 -127 0
9 12 142 0
-9 -12 -142 0
10 12 157 0
-10 -12 -157 0
11 12 172 0
-11 -12 -172 0
1 13 23 0
-1 -13 -23 0
2 13 38 0
-2 -13 -38 0
3 13 53 0
-3 -13 -53 0
4 13 68 0
-4 -13 -68 0
5 13 83 0
-5 -13 -83 0
6 13 98 0
-6 -13 -98 0
7 13 113 0
-7 -13 -113 0
8 13 128 0
-8 -13 -128 0
9 13 143 0
-9 -13 -143 0
10 13 158 0
-10 -13 -158 0
11 13 173 0
-11 -13 -173 0
1 14 24 0
-1 -14 -24 0
2 14 39 0
-2 -14 -39 0
3 14 54 0
-3 -14 -54 0
4 14 69 0
-4 -14 -69 0
5 14 84 0
-5 -14 -84 0
6 14 99 0
-6 -14 -99 0
7 14 114 0
-7 -14 -114 0
8 14 129 0
-8 -14 -129 0
9 14 144 0
-9 -14 -144 0
10 14 159 0
-10 -14 -159 0
11 14 174 0
-11 -14 -174 0
1 15 25 0
-1 -15 -25 0
2 15 40 0
-2 -15 -40 0
3 15 55 0
-3 -15 -55 0
4 15 70 0
-4 -15 -70 0
5 15 85 0
-5 -15 -85 0
6 15 100 0
-6 -15 -100 0
7 15 115 0
-7 -15 -115 0
8 15 130 0
-8 -15 -130 0
9 15 145 0
-9 -15 -145 0
10 15 160 0
-10 -15 -160 0
11 15 175 0
-11 -15 -175 0
1 16 26 0
-1 -16 -26 0
2 16 41 0
-2 -16 -41 0
3 16 56 0
-3 -16 -56 0
4 16 71 0
-4 -16 -71 0
5 16 86 0
-5 -16 -86 0
6 16 101 0
-6 -16 -101 0
7 16 116 0
-7 -16 -116 0
8 16 131 0
-8 -16 -131 0
9 16 146 0
-9 -16 -146 0
10 16 161 0
-10 -16 -161 0
11 16 176 0
-11 -16 -176 0
1 17 27 0
-1 -17 -27 0
2 17 42 0
-2 -17 -42 0
3 17 57 0
-3 -17 -57 0
4 17 72 0
-4 -17 -72 0
5 17 87 0
-5 -17 -87 0
6 17 102 0
-6 -17 -102 0
7 17 117 0
-7 -17 -117 0
8 17 132 0
-8 -17 -132 0
9 17 147 0
-9 -17 -147 0
10 17 162 0
-10 -17 -162 0
11 17 177 0
-11 -17 -177 0
1 18 28 0
-1 -18 -28 0
2 18 43 0
-2 -18 -43 0
3 18 58 0
-3 -18 -58 0
4 18 73 0
-4 -18 -73 0
5 18 88 0
-5 -18 -88 0
6 18 103 0
-6 -18 -103 0
7 18 118 0
-7 -18 -118 0
8 18 133 0
-8 -18 -133 0
9 18 148 0
-9 -18 -148 0
10 18 163 0
-10 -18 -163 0
11 18 178 0
-11 -18 -178 0
1 19 29 0
-1 -19 -29 0
2 19 44 0
-2 -19 -44 0
3 19 59 0
-3 -19 -59 0
4 19 74 0
-4 -19 -74 0
5 19 89 0
-5 -19 -89 0
6 19 104 0
-6 -19 -104 0
7 19 119 0
-7 -19 -119 0
8 19 134 0
-8 -19 -134 0
9 19 149 0
-9 -19 -149 0
10 19 164 0
-10 -19 -164 0
11 19 179 0
-11 -19 -179 0
1 20 30 0
-1 -20 -30 0
2 20 45 0
-2 -20 -45 0
3 20 60 0
-3 -20 -60 0
4 20 75 0
-4 -20 -75 0
5 20 90 0
-5 -20 -90 0
6 20 105 0
-6 -20 -105 0
7 20 120 0
-7 -20 -120 0
8 20 135 0
-8 -20 -135 0
9 20 150 0
-9 -20 -150 0
10 20 165 0
-10 -20 -165 0
11 20 180 0
-11 -20 -180 0
1 21 31 0
-1 -21 -31 0
2 21 46 0
-2 -21 -46 0
3 21 61 0
-3 -21 -61 0
4 21 76 0
-4 -21 -76 0
5 21 91 0
-5 -21 -91 0
6 21 106 0
-6 -21 -106 0
7 21 121 0
-7 -21 -121 0
8 21 136 0
-8 -21 -136 0
9 21 151 0
-9 -21 -151 0
10 21 166 0
-10 -21 -166 0
11 21 181 0
-11 -21 -181 0
1 22 32 0
-1 -22 -32 0
2 22 47 0
-2 -22 -47 0
3 22 62 0
-3 -22 -62 0
4 22 77 0
-4 -22 -77 0
5 22 92 0
-5 -22 -92 0
6 22 107 0
-6 -22 -107 0
7 22 122 0
-7 -22 -122 0
8 22 137 0
-8 -22 -137 0
9 22 152 0
-9 -22 -152 0
10 22 167 0
-10 -22 -167 0
11 22 182 0
-11 -22 -182 0
1 23 33 0
-1 -23 -33 0
2 23 48 0
-2 -23 -48 0
3 23 63 0
-3 -23 -63 0
4 23 78 0
-4 -23 -78 0
5 23 93 0
-5 -23 -93 0
6 23 108 0
-6 -23 -108 0
7 23 123 0
-7 -23 -123 0
8 23 138 0
-8 -23 -138 0
9 23 153 0
-9 -23 -153 0
10 23 168 0
-10 -23 -168 0
11 23 183 0
-11 -23 -183 0
1 24 34 0
-1 -24 -34 0
2 24 49 0
-2 -24 -49 0
3 24 64 0
-3 -24 -64 0
4 24 79 0
-4 -24 -79 0
5 24 94 0
-5 -24 -94 0
6 24 109 0
-6 -24 -109 0
7 24 124 0
-7 -24 -124 0
8 24 139 0
-8 -24 -139 0
9 24 154 0
-9 -24 -154 0
10 24 169 0
-10 -24 -169 0
11 24 184 0
-11 -24 -184 0
1 25 35 0
-1 -25 -35 0
2 25 50 0
-2 -25 -50 0
3 25 65 0
-3 -25 -65 0
4 25 80 0
-4 -25 -80 0
5 25 95 0
-5 -25 -95 0
6 25 110 0
-6 -25 -110 0
7 25 125 0
-7 -25 -125 0
8 25 140 0
-8 -25 -140 0
9 25 155 0
-9 -25 -155 0
10 25 170 0
-10 -25 -170 0
11 25 185 0
-11 -25 -185 0
1 26 36 0
-1 -26 -36 0
2 26 51 0
-2 -26 -51 0
3 26 66 0
-3 -26 -66 0
4 26 81 0
-4 -26 -81 0
5 26 96 0
-5 -26 -96 0
6 26 111 0
-6 -26 -111 0
7 26 126 0
-7 -26 -126 0
8 26 141 0
-8 -26 -141 0
9 26 156 0
-9 -26 -156 0
10 26 171 0
-10 -26 -171 0
11 26 186 0
-11 -26 -186 0
1 27 37 0
-1 -27 -37 0
2 27 52 0
-2 -27 -52 0
3 27 67 0
-3 -27 -67 0
4 27 82 0
-4 -27 -82 0
5 27 97 0
-5 -27 -97 0
6 27 112 0
-6 -27 -112 0
7 27 127 0
-7 -27 -127 0
8 27 142 0
-8 -27 -142 0
9 27 157 0
-9 -27 -157 0
10 27 172 0
-10 -27 -172 0
1 28 38 0
-1 -28 -38 0
2 28 53 0
-2 -28 -53 0
3 28 68 0
-3 -28 -68 0
4 28 83 0
-4 -28 -83 0
5 28 98 0
-5 -28 -98 0
6 28 113 0
-6 -28 -113 0
7 28 128 0
-7 -28 -128 0
8 28 143 0
-8 -28 -143 0
9 28 158 0
-9 -28 -158 0
10 28 173 0
-10 -28 -173 0
1 29 39 0
-1 -29 -39 0
2 29 54 0
-2 -29 -54 0
3 29 69 0
-3 -29 -69 0
4 29 84 0
-4 -29 -84 0
5 29 99 0
-5 -29 -99 0
6 29 114 0
-6 -29 -114 0
7 29 129 0
-7 -29 -129 0
8 29 144 0
-8 -29 -144 0
9 29 159 0
-9 -29 -159 0
10 29 174 0
-10 -29 -174 0
1 30 40 0
-1 -30 -40 0
2 30 55 0
-2 -30 -55 0
3 30 70 0
-3 -30 -70 0
4 30 85 0
-4 -30 -85 0
5 30 100 0
-5 -30 -100 0
6 30 115 0
-6 -30 -115 0
7 30 130 0
-7 -30 -130 0
8 30 145 0
-8 -30 -145 0
9 30 160 0
-9 -30 -160 0
10 30 175 0
-10 -30 -175 0
1 31 41 0
-1 -31 -41 0
2 31 56 0
-2 -31 -56 0
3 31 71 0
-3 -31 -71 0
4 31 86 0
-4 -31 -86 0
5 31 101 0
-5 -31 -101 0
6 31 116 0
-6 -31 -116 0
7 31 131 0
-7 -31 -131 0
8 31 146 0
-8 -31 -146 0
9 31 161 0
-9 -31 -161 0
10 31 176 0
-10 -31 -176 0
1 32 42 0
-1 -32 -42 0
2 32 57 0
-2 -32 -57 0
3 32 72 0
-3 -32 -72 0
4 32 87 0
-4 -32 -87 0
5 32 102 0
-5 -32 -102 0
6 32 117 0
-6 -32 -117 0
7 32 132 0
-7 -32 -132 0
8 32 147 0
-8 -32 -147 0
9 32 162 0
-9 -32 -162 0
10 32 177 0
-10 -32 -177 0
1 33 43 0
-1 -33 -43 0
2 33 58 0
-2 -33 -58 0
3 33 73 0
-3 -33 -73 0
4 33 88 0
-4 -33 -88 0
5 33 103 0
-5 -33 -103 0
6 33 118 0
-6 -33 -118 0
7 33 133 0
-7 -33 -133 0
8 33 148 0
-8 -33 -148 0
9 33 163 0
-9 -33 -163 0
10 33 178 0
-10 -33 -178 0
1 34 44 0
-1 -34 -44 0
2 34 59 0
-2 -34 -59 0
3 34 74 0
-3 -34 -74 0
4 34 89 0
-4 -34 -89 0
5 34 104 0
-5 -34 -104 0
6 34 119 0
-6 -34 -119 0
7 34 134 0
-7 -34 -134 0
8 34 149 0
-8 -34 -149 0
9 34 164 0
-9 -34 -164 0
10 34 179 0
-10 -34 -179 0
1 35 45 0
-1 -35 -45 0
2 35 60 0
-2 -35 -60 0
3 35 75 0
-3 -35 -75 0
4 35 90 0
-4 -35 -90 0
5 35 105 0
-5 -35 -105 0
6 35 120 0
-6 -35 -120 0
7 35 135 0
-7 -35 -135 0
8 35 150 0
-8 -35 -150 0
9 35 165 0
-9 -35 -165 0
10 35 180 0
-10 -35 -180 0
1 36 46 0
-1 -36 -46 0
2 36 61 0
-2 -36 -61 0
3 36 76 0
-3 -36 -76 0
4 36 91 0
-4 -36 -91 0
5 36 106 0
-5 -36 -106 0
6 36 121 0
-6 -36 -121 0
7 36 136 0
-7 -36 -136 0
8 36 151 0
-8 -36 -151 0
9 36 166 0
-9 -36 -166 0
10 36 181 0
-10 -36 -181 0
1 37 47 0
-1 -37 -47 0
2 37 62 0
-2 -37 -62 0
3 37 77 0
-3 -37 -77 0
4 37 92 0
-4 -37 -92 0
5 37 107 0
-5 -37 -107 0
6 37 122 0
-6 -37 -122 0
7 37 137 0
-7 -37 -137 0
8 37 152 0
-8 -37 -152 0
9 37 167 0
-9 -37 -167 0
10 37 182 0
-10 -37 -182 0
1 38 48 0
-1 -38 -48 0
2 38 63 0
-2 -38 -63 0
3 38 78 0
-3 -38 -78 0
4 38 93 0
-4 -38 -93 0
5 38 108 0
-5 -38 -108 0
6 38 123 0
-6 -38 -123 0
7 38 138 0
-7 -38 -138 0
8 38 153 0
-8 -38 -153 0
9 38 168 0
-9 -38 -168 0
10 38 183 0
-10 -38 -183 0
1 39 49 0
-1 -39 -49 0
2 39 64 0
-2 -39 -64 0
3 39 79 0
-3 -39 -79 0
4 39 94 0
-4 -39 -94 0
5 39 109 0
-5 -39 -109 0
6 39 124 0
-6 -39 -124 0
7 39 139 0
-7 -39 -139 0
8 39 154 0
-8 -39 -154 0
9 39 169 0
-9 -39 -169 0
10 39 184 0
-10 -39 -184 0
1 40 50 0
-1 -40 -50 0
2 40 65 0
-2 -40 -65 0
3 40 80 0
-3 -40 -80 0
4 40 95 0
-4 -40 -95 0
5 40 110 0
-5 -40 -110 0
6 40 125 0
-6 -40 -125 0
7 40 140 0
-7 -40 -140 0
8 40 155 0
-8 -40 -155 0
9 40 170 0
-9 -40 -170 0
10 40 185 0
-10 -40 -185 0
1 41 51 0
-1 -41 -51 0
2 41 66 0
-2 -41 -66 0
3 41 81 0
-3 -41 -81 0
4 41 96 0
-4 -41 -96 0
5 41 111 0
-5 -41 -111 0
6 41 126 0
-6 -41 -126 0
7 41 141 0
-7 -41 -141 0
8 41 156 0
-8 -41 -156 0
9 41 171 0
-9 -41 -171 0
10 41 186 0
-10 -41 -186 0
1 42 52 0
-1 -42 -52 0
2 42 67 0
-2 -42 -67 0
3 42 82 0
-3 -42 -82 0
4 42 97 0
-4 -42 -97 0
5 42 112 0
-5 -42 -112 0
6 42 127 0
-6 -42 -127 0
7 42 142 0
-7 -42 -142 0
8 42 157 0
-8 -42 -157 0
9 42 172 0
-9 -42 -172 0
1 43 53 0
-1 -43 -53 0
2 43 68 0
-2 -43 -68 0
3 43 83 0
-3 -43 -83 0
4 43 98 0
-4 -43 -98 0
5 43 113 0
-5 -43 -113 0
6 43 128 0
-6 -43 -128 0
7 43 143 0
-7 -43 -143 0
8 43 158 0
-8 -43 -158 0
9 43 173 0
-9 -43 -173 0
1 44 54 0
-1 -44 -54 0
2 44 69 0
-2 -44 -69 0
3 44 84 0
-3 -44 -84 0
4 44 99 0
-4 -44 -99 0
5 44 114 0
-5 -44 -114 0
6 44 129 0
-6 -44 -129 0
7 44 144 0
-7 -44 -144 0
8 44 159 0
-8 -44 -159 0
9 44 174 0
-9 -44 -174 0
1 45 55 0
-1 -45 -55 0
2 45 70 0
-2 -45 -70 0
3 45 85 0
-3 -45 -85 0
4 45 100 0
-4 -45 -100 0
5 45 115 0
-5 -45 -115 0
6 45 130 0
-6 -45 -130 0
7 45 145 0
-7 -45 -145 0
8 45 160 0
-8 -45 -160 0
9 45 175 0
-9 -45 -175 0
1 46 56 0
-1 -46 -56 0
2 46 71 0
-2 -46 -71 0
3 46 86 0
-3 -46 -86 0
4 46 101 0
-4 -46 -101 0
5 46 116 0
-5 -46 -116 0
6 46 131 0
-6 -46 -131 0
7 46 146 0
-7 -46 -146 0
8 46 161 0
-8 -46 -161 0
9 46 176 0
-9 -46 -176 0
1 47 57 0
-1 -47 -57 0
2 47 72 0
-2 -47 -72 0
3 47 87 0
-3 -47 -87 0
4 47 102 0
-4 -47 -102 0
5 47 117 0
-5 -47 -117 0
6 47 132 0
-6 -47 -132 0
7 47 147 0
-7 -47 -147 0
8 47 162 0
-8 -47 -162 0
9 47 177 0
-9 -47 -177 0
1 48 58 0
-1 -48 -58 0
2 48 73 0
-2 -48 -73 0
3 48 88 0
-3 -48 -88 0
4 48 103 0
-4 -48 -103 0
5 48 118 0
-5 -48 -118 0
6 48 133 0
-6 -48 -133 0
7 48 148 0
-7 -48 -148 0
8 48 163 0
-8 -48 -163 0
9 48 178 0
-9 -48 -178 0
1 49 59 0
-1 -49 -59 0
2 49 74 0
-2 -49 -74 0
3 49 89 0
-3 -49 -89 0
4 49 104 0
-4 -49 -104 0
5 49 119 0
-5 -49 -119 0
6 49 134 0
-6 -49 -134 0
7 49 149 0
-7 -49 -149 0
8 49 164 0
-8 -49 -164 0
9 49 179 0
-9 -49 -179 0
1 50 60 0
-1 -50 -60 0
2 50 75 0
-2 -50 -75 0
3 50 90 0
-3 -50 -90 0
4 50 105 0
-4 -50 -105 0
5 50 120 0
-5 -50 -120 0
6 50 135 0
-6 -50 -135 0
7 50 150 0
-7 -50 -150 0
8 50 165 0
-8 -50 -165 0
9 50 180 0
-9 -50 -180 0
1 51 61 0
-1 -51 -61 0
2 51 76 0
-2 -51 -76 0
3 51 91 0
-3 -51 -91 0
4 51 106 0
-4 -51 -106 0
5 51 121 0
-5 -51 -121 0
6 51 136 0
-6 -51 -136 0
7 51 151 0
-7 -51 -151 0
8 51 166 0
-8 -51 -166 0
9 51 181 0
-9 -51 -181 0
1 52 62 0
-1 -52 -62 0
2 52 77 0
-2 -52 -77 0
3 52 92 0
-3 -52 -92 0
4 52 107 0
-4 -52 -107 0
5 52 122 0
-5 -52 -122 0
6 52 137 0
-6 -52 -137 0
7 52 152 0
-7 -52 -152 0
8 52 167 0
-8 -52 -167 0
9 52 182 0
-9 -52 -182 0
1 53 63 0
-1 -53 -63 0
2 53 78 0
-2 -53 -78 0
3 53 93 0
-3 -53 -93 0
4 53 108 0
-4 -53 -108 0
5 53 123 0
-5 -53 -123 0
6 53 138 0
-6 -53 -138 0
7 53 153 0
-7 -53 -153 0
8 53 168 0
-8 -53 -168 0
9 53 183 0
-9 -53 -183 0
1 54 64 0
-1 -54 -64 0
2 54 79 0
-2 -54 -79 0
3 54 94 0
-3 -54 -94 0
4 54 109 0
-4 -54 -109 0
5 54 124 0
-5 -54 -124 0
6 54 139 0
-6 -54 -139 0
7 54 154 0
-7 -54 -154 0
8 54 169 0
-8 -54 -169 0
9 54 184 0
-9 -54 -184 0
1 55 65 0
-1 -55 -65 0
2 55 80 0
-2 -55 -80 0
3 55 95 0
-3 -55 -95 0
4 55 110 0
-4 -55 -110 0
5 55 125 0
-5 -55 -125 0
6 55 140 0
-6 -55 -140 0
7 55 155 0
-7 -55 -155 0
8 55 170 0
-8 -55 -170 0
9 55 185 0
-9 -55 -185 0
1 56 66 0
-1 -56 -66 0
2 56 81 0
-2 -56 -81 0
3 56 96 0
-3 -56 -96 0
4 56 111 0
-4 -56 -111 0
5 56 126 0
-5 -56 -126 0
6 56 141 0
-6 -56 -141 0
7 56 156 0
-7 -56 -156 0
8 56 171 0
-8 -56 -171 0
9 56 186 0
-9 -56 -186 0
1 57 67 0
-1 -57 -67 0
2 57 82 0
-2 -57 -82 0
3 57 97 0
-3 -57 -97 0
4 57 112 0
-4 -57 -112 0
5 57 127 0
-5 -57 -127 0
6 57 142 0
-6 -57 -142 0
7 57 157 0
-7 -57 -157 0
8 57 172 0
-8 -57 -172 0
1 58 68 0
-1 -58 -68 0
2 58 83 0
-2 -58 -83 0
3 58 98 0
-3 -58 -98 0
4 58 113 0
-4 -58 -113 0
5 58 128 0
-5 -58 -128 0
6 58 143 0
-6 -58 -143 0
7 58 158 0
-7 -58 -158 0
8 58 173 0
-8 -58 -173 0
1 59 69 0
-1 -59 -69 0
2 59 84 0
-2 -59 -84 0
3 59 99 0
-3 -59 -99 0
4 59 114 0
-4 -59 -114 0
5 59 129 0
-5 -59 -129 0
6 59 144 0
-6 -59 -144 0
7 59 159 0
-7 -59 -159 0
8 59 174 0
-8 -59 -174 0
1 60 70 0
-1 -60 -70 0
2 60 85 0
-2 -60 -85 0
3 60 100 0
-3 -60 -100 0
4 60 115 0
-4 -60 -115 0
5 60 130 0
-5 -60 -130 0
6 60 145 0
-6 -60 -145 0
7 60 160 0
-7 -60 -160 0
8 60 175 0
-8 -60 -175 0
1 61 71 0
-1 -61 -71 0
2 61 86 0
-2 -61 -86 0
3 61 101 0
-3 -61 -101 0
4 61 116 0
-4 -61 -116 0
5 61 131 0
-5 -61 -131 0
6 61 146 0
-6 -61 -146 0
7 61 161 0
-7 -61 -161 0
8 61 176 0
-8 -61 -176 0
1 62 72 0
-1 -62 -72 0
2 62 87 0
-2 -62 -87 0
3 62 102 0
-3 -62 -102 0
4 62 117 0
-4 -62 -117 0
5 62 132 0
-5 -62 -132 0
6 62 147 0
-6 -62 -147 0
7 62 162 0
-7 -62 -162 0
8 62 177 0
-8 -62 -177 0
1 63 73 0
-1 -63 -73 0
2 63 88 0
-2 -63 -88 0
3 63 103 0
-3 -63 -103 0
4 63 118 0
-4 -63 -118 0
5 63 133 0
-5 -63 -133 0
6 63 148 0
-6 -63 -148 0
7 63 163 0
-7 -63 -163 0
8 63 178 0
-8 -63 -178 0
1 64 74 0
-1 -64 -74 0
2 64 89 0
-2 -64 -89 0
3 64 104 0
-3 -64 -104 0
4 64 119 0
-4 -64 -119 0
5 64 134 0
-5 -64 -134 0
6 64 149 0
-6 -64 -149 0
7 64 164 0
-7 -64 -164 0
8 64 179 0
-8 -64 -179 0
1 65 75 0
-1 -65 -75 0
2 65 90 0
-2 -65 -90 0
3 65 105 0
-3 -65 -105 0
4 65 120 0
-4 -65 -120 0
5 65 135 0
-5 -65 -135 0
6 65 150 0
-6 -65 -150 0
7 65 165 0
-7 -65 -165 0
8 65 180 0
-8 -65 -180 0
1 66 76 0
-1 -66 -76 0
2 66 91 0
-2 -66 -91 0
3 66 106 0
-3 -66 -106 0
4 66 121 0
-4 -66 -121 0
5 66 136 0
-5 -66 -136 0
6 66 151 0
-6 -66 -151 0
7 66 166 0
-7 -66 -166 0
8 66 181 0
-8 -66 -181 0
1 67 77 0
-1 -67 -77 0
2 67 92 0
-2 -67 -92 0
3 67 107 0
-3 -67 -107 0
4 67 122 0
-4 -67 -122 0
5 67 137 0
-5 -67 -137 0
6 67 152 0
-6 -67 -152 0
7 67 167 0
-7 -67 -167 0
8 67 182 0
-8 -67 -182 0
1 68 78 0
-1 -68 -78 0
2 68 93 0
-2 -68 -93 0
3 68 108 0
-3 -68 -108 0
4 68 123 0
-4 -68 -123 0
5 68 138 0
-5 -68 -138 0
6 68 153 0
-6 -68 -153 0
7 68 168 0
-7 -68 -168 0
8 68 183 0
-8 -68 -183 0
1 69 79 0
-1 -69 -79 0
2 69 94 0
-2 -69 -94 0
3 69 109 0
-3 -69 -109 0
4 69 124 0
-4 -69 -124 0
5 69 139 0
-5 -69 -139 0
6 69 154 0
-6 -69 -154 0
7 69 169 0
-7 -69 -169 0
8 69 184 0
-8 -69 -184 0
1 70 80 0
-1 -70 -80 0
2 70 95 0
-2 -70 -95 0
3 70 110 0
-3 -70 -110 0
4 70 125 0
-4 -70 -125 0
5 70 140 0
-5 -70 -140 0
6 70 155 0
-6 -70 -155 0
7 70 170 0
-7 -70 -170 0
8 70 185 0
-8 -70 -185 0
1 71 81 0
-1 -71 -81 0
2 71 96 0
-2 -71 -96 0
3 71 111 0
-3 -71 -111 0
4 71 126 0
-4 -71 -126 0
5 71 141 0
-5 -71 -141 0
6 71 156 0
-6 -71 -156 0
7 71 171 0
-7 -71 -171 0
8 71 186 0
-8 -71 -186 0
1 72 82 0
-1 -72 -82 0
2 72 97 0
-2 -72 -97 0
3 72 112 0
-3 -72 -112 0
4 72 127 0
-4 -72 -127 0
5 72 142 0
-5 -72 -142 0
6 72 157 0
-6 -72 -157 0
7 72 172 0
-7 -72 -172 0
1 73 83 0
-1 -73 -83 0
2 73 98 0
-2 -73 -98 0
3 73 113 0
-3 -73 -113 0
4 73 128 0
-4 -73 -128 0
5 73 143 0
-5 -73 -143 0
6 73 158 0
-6 -73 -158 0
7 73 173 0
-7 -73 -173 0
1 74 84 0
-1 -74 -84 0
2 74 99 0
-2 -74 -99 0
3 74 114 0
-3 -74 -114 0
4 74 129 0
-4 -74 -129 0
5 74 144 0
-5 -74 -144 0
6 74 159 0
-6 -74 -159 0
7 74 174 0
-7 -74 -174 0
1 75 85 0
-1 -75 -85 0
2 75 100 0
-2 -75 -100 0
3 75 115 0
-3 -75 -115 0
4 75 130 0
-4 -75 -130 0
5 75 145 0
-5 -75 -145 0
6 75 160 0
-6 -75 -160 0
7 75 175 0
-7 -75 -175 0
1 76 86 0
-1 -76 -86 0
2 76 101 0
-2 -76 -101 0
3 76 116 0
-3 -76 -116 0
4 76 131 0
-4 -76 -131 0
5 76 146 0
-5 -76 -146 0
6 76 161 0
-6 -76 -161 0
7 76 176 0
-7 -76 -176 0
1 77 87 0
-1 -77 -87 0
2 77 102 0
-2 -77 -102 0
3 77 117 0
-3 -77 -117 0
4 77 132 0
-4 -77 -132 0
5 77 147 0
-5 -77 -147 0
6 77 162 0
-6 -77 -162 0
7 77 177 0
-7 -77 -177 0
1 78 88 0
-1 -78 -88 0
2 78 103 0
-2 -78 -103 0
3 78 118 0
-3 -78 -118 0
4 78 133 0
-4 -78 -133 0
5 78 148 0
-5 -78 -148 0
6 78 163 0
-6 -78 -163 0
7 78 178 0
-7 -78 -178 0
1 79 89 0
-1 -79 -89 0
2 79 104 0
-2 -79 -104 0
3 79 119 0
-3 -79 -119 0
4 79 134 0
-4 -79 -134 0
5 79 149 0
-5 -79 -149 0
6 79 164 0
-6 -79 -164 0
7 79 179 0
-7 -79 -179 0
1 80 90 0
-1 -80 -90 0
2 80 105 0
-2 -80 -105 0
3 80 120 0
-3 -80 -120 0
4 80 135 0
-4 -80 -135 0
5 80 150 0
-5 -80 -150 0
6 80 165 0
-6 -80 -165 0
7 80 180 0
-7 -80 -180 0
1 81 91 0
-1 -81 -91 0
2 81 106 0
-2 -81 -106 0
3 81 121 0
-3 -81 -121 0
4 81 136 0
-4 -81 -136 0
5 81 151 0
-5 -81 -151 0
6 81 166 0
-6 -81 -166 0
7 81 181 0
-7 -81 -181 0
1 82 92 0
-1 -82 -92 0
2 82 107 0
-2 -82 -107 0
3 82 122 0
-3 -82 -122 0
4 82 137 0
-4 -82 -137 0
5 82 152 0
-5 -82 -152 0
6 82 167 0
-6 -82 -167 0
7 82 182 0
-7 -82 -182 0
1 83 93 0
-1 -83 -93 0
2 83 108 0
-2 -83 -108 0
3 83 123 0
-3 -83 -123 0
4 83 138 0
-4 -83 -138 0
5 83 153 0
-5 -83 -153 0
6 83 168 0
-6 -83 -168 0
7 83 183 0
-7 -83 -183 0
1 84 94 0
-1 -84 -94 0
2 84 109 0
-2 -84 -109 0
3 84 124 0
-3 -84 -124 0
4 84 139 0
-4 -84 -139 0
5 84 154 0
-5 -84 -154 0
6 84 169 0
-6 -84 -169 0
7 84 184 0
-7 -84 -184 0
1 85 95 0
-1 -85 -95 0
2 85 110 0
-2 -85 -110 0
3 85 125 0
-3 -85 -125 0
4 85 140 0
-4 -85 -140 0
5 85 155 0
-5 -85 -155 0
6 85 170 0
-6 -85 -170 0
7 85 185 0
-7 -85 -185 0
1 86 96 0
-1 -86 -96 0
2 86 111 0
-2 -86 -111 0
3 86 126 0
-3 -86 -126 0
4 86 141 0
-4 -86 -141 0
5 86 156 0
-5 -86 -156 0
6 86 171 0
-6 -86 -171 0
7 86 186 0
-7 -86 -186 0
1 87 97 0
-1 -87 -97 0
2 87 112 0
-2 -87 -112 0
3 87 127 0
-3 -87 -127 0
4 87 142 0
-4 -87 -142 0
5 87 157 0
-5 -87 -157 0
6 87 172 0
-6 -87 -172 0
1 88 98 0
-1 -88 -98 0
2 88 113 0
-2 -88 -113 0
3 88 128 0
-3 -88 -128 0
4 88 143 0
-4 -88 -143 0
5 88 158 0
-5 -88 -158 0
6 88 173 0
-6 -88 -173 0
1 89 99 0
-1 -89 -99 0
2 89 114 0
-2 -89 -114 0
3 89 129 0
-3 -89 -129 0
4 89 144 0
-4 -89 -144 0
5 89 159 0
-5 -89 -159 0
6 89 174 0
-6 -89 -174 0
1 90 100 0
-1 -90 -100 0
2 90 115 0
-2 -90 -115 0
3 90 130 0
-3 -90 -130 0
4 90 145 0
-4 -90 -145 0
5 90 160 0
-5 -90 -160 0
6 90 175 0
-6 -90 -175 0
1 91 101 0
-1 -91 -101 0
2 91 116 0
-2 -91 -116 0
3 91 131 0
-3 -91 -131 0
4 91 146 0
-4 -91 -146 0
5 91 161 0
-5 -91 -161 0
6 91 176 0
-6 -91 -176 0
1 92 102 0
-1 -92 -102 0
2 92 117 0
-2 -92 -117 0
3 92 132 0
-3 -92 -132 0
4 92 147 0
-4 -92 -147 0
5 92 162 0
-5 -92 -162 0
6 92 177 0
-6 -92 -177 0
1 93 103 0
-1 -93 -103 0
2 93 118 0
-2 -93 -118 0
3 93 133 0
-3 -93 -133 0
4 93 148 0
-4 -93 -148 0
5 93 163 0
-5 -93 -163 0
6 93 178 0
-6 -93 -178 0
1 94 104 0
-1 -94 -104 0
2 94 119 0
-2 -94 -119 0
3 94 134 0
-3 -94 -134 0
4 94 149 0
-4 -94 -149 0
5 94 164 0
-5 -94 -164 0
6 94 179 0
-6 -94 -179 0
1 95 105 0
-1 -95 -105 0
2 95 120 0
-2 -95 -120 0
3 95 135 0
-3 -95 -135 0
4 95 150 0
-4 -95 -150 0
5 95 165 0
-5 -95 -165 0
6 95 180 0
-6 -95 -180 0
1 96 106 0
-1 -96 -106 0
2 96 121 0
-2 -96 -121 0
3 96 136 0
-3 -96 -136 0
4 96 151 0
-4 -96 -151 0
5 96 166 0
-5 -96 -166 0
6 96 181 0
-6 -96 -181 0
1 97 107 0
-1 -97 -107 0
2 97 122 0
-2 -97 -122 0
3 97 137 0
-3 -97 -137 0
4 97 152 0
-4 -97 -152 0
5 97 167 0
-5 -97 -167 0
6 97 182 0
-6 -97 -182 0
1 98 108 0
-1 -98 -108 0
2 98 123 0
-2 -98 -123 0
3 98 138 0
-3 -98 -138 0
4 98 153 0
-4 -98 -153 0
5 98 168 0
-5 -98 -168 0
6 98 183 0
-6 -98 -183 0
1 99 109 0
-1 -99 -109 0
2 99 124 0
-2 -99 -124 0
3 99 139 0
-3 -99 -139 0
4 99 154 0
-4 -99 -154 0
5 99 169 0
-5 -99 -169 0
6 99 184 0
-6 -99 -184 0
1 100 110 0
-1 -100 -110 0
2 100 125 0
-2 -100 -125 0
3 100 140 0
-3 -100 -140 0
4 100 155 0
-4 -100 -155 0
5 100 170 0
-5 -100 -170 0
6 100 185 0
-6 -100 -185 0
1 101 111 0
-1 -101 -111 0
2 101 126 0
-2 -101 -126 0
3 101 141 0
-3 -101 -141 0
4 101 156 0
-4 -101 -156 0
5 101 171 0
-5 -101 -171 0
6 101 186 0
-6 -101 -186 0
1 102 112 0
-1 -102 -112 0
2 102 127 0
-2 -102 -127 0
3 102 142 0
-3 -102 -142 0
4 102 157 0
-4 -102 -157 0
5 102 172 0
-5 -102 -172 0
1 103 113 0
-1 -103 -113 0
2 103 128 0
-2 -103 -128 0
3 103 143 0
-3 -103 -143 0
4 103 158 0
-4 -103 -158 0
5 103 173 0
-5 -103 -173 0
1 104 114 0
-1 -104 -114 0
2 104 129 0
-2 -104 -129 0
3 104 144 0
-3 -104 -144 0
4 104 159 0
-4 -104 -159 0
5 104 174 0
-5 -104 -174 0
1 105 115 0
-1 -105 -115 0
2 105 130 0
-2 -105 -130 0
3 105 145 0
-3 -105 -145 0
4 105 160 0
-4 -105 -160 0
5 105 175 0
-5 -105 -175 0
1 106 116 0
-1 -106 -116 0
2 106 131 0
-2 -106 -131 0
3 106 146 0
-3 -106 -146 0
4 106 161 0
-4 -106 -161 0
5 106 176 0
-5 -106 -176 0
1 107 117 0
-1 -107 -117 0
2 107 132 0
-2 -107 -132 0
3 107 147 0
-3 -107 -147 0
4 107 162 0
-4 -107 -162 0
5 107 177 0
-5 -107 -177 0
1 108 118 0
-1 -108 -118 0
2 108 133 0
-2 -108 -133 0
3 108 148 0
-3 -108 -148 0
4 108 163 0
-4 -108 -163 0
5 108 178 0
-5 -108 -178 0
1 109 119 0
-1 -109 -119 0
2 109 134 0
-2 -109 -134 0
3 109 149 0
-3 -109 -149 0
4 109 164 0
-4 -109 -164 0
5 109 179 0
-5 -109 -179 0
1 110 120 0
-1 -110 -120 0
2 110 135 0
-2 -110 -135 0
3 110 150 0
-3 -110 -150 0
4 110 165 0
-4 -110 -165 0
5 110 180 0
-5 -110 -180 0
1 111 121 0
-1 -111 -121 0
2 111 136 0
-2 -111 -136 0
3 111 151 0
-3 -111 -151 0
4 111 166 0
-4 -111 -166 0
5 111 181 0
-5 -111 -181 0
1 112 122 0
-1 -112 -122 0
2 112 137 0
-2 -112 -137 0
3 112 152 0
-3 -112 -152 0
4 112 167 0
-4 -112 -167 0
5 112 182 0
-5 -112 -182 0
1 113 123 0
-1 -113 -123 0
2 113 138 0
-2 -113 -138 0
3 113 153 0
-3 -113 -153 0
4 113 168 0
-4 -113 -168 0
5 113 183 0
-5 -113 -183 0
1 114 124 0
-1 -114 -124 0
2 114 139 0
-2 -114 -139 0
3 114 154 0
-3 -114 -154 0
4 114 169 0
-4 -114 -169 0
5 114 184 0
-5 -114 -184 0
1 115 125 0
-1 -115 -125 0
2 115 140 0
-2 -115 -140 0
3 115 155 0
-3 -115 -155 0
4 115 170 0
-4 -115 -170 0
5 115 185 0
-5 -115 -185 0
1 116 126 0
-1 -116 -126 0
2 116 141 0
-2 -116 -141 0
3 116 156 0
-3 -116 -156 0
4 116 171 0
-4 -116 -171 0
5 116 186 0
-5 -116 -186 0
1 117 127 0
-1 -117 -127 0
2 117 142 0
-2 -117 -142 0
3 117 157 0
-3 -117 -157 0
4 117 172 0
-4 -117 -172 0
1 118 128 0
-1 -118 -128 0
2 118 143 0
-2 -118 -143 0
3 118 158 0
-3 -118 -158 0
4 118 173 0
-4 -118 -173 0
1 119 129 0
-1 -119 -129 0
2 119 144 0
-2 -119 -144 0
3 119 159 0
-3 -119 -159 0
4 119 174 0
-4 -119 -174 0
1 120 130 0
-1 -120 -130 0
2 120 145 0
-2 -120 -145 0
3 120 160 0
-3 -120 -160 0
4 120 175 0
-4 -120 -175 0
1 121 131 0
-1 -121 -131 0
2 121 146 0
-2 -121 -146 0
3 121 161 0
-3 -121 -161 0
4 121 176 0
-4 -121 -176 0
1 122 132 0
-1 -122 -132 0
2 122 147 0
-2 -122 -147 0
3 122 162 0
-3 -122 -162 0
4 122 177 0
-4 -122 -177 0
1 123 133 0
-1 -123 -133 0
2 123 148 0
-2 -123 -148 0
3 123 163 0
-3 -123 -163 0
4 123 178 0
-4 -123 -178 0
1 124 134 0
-1 -124 -134 0
2 124 149 0
-2 -124 -149 0
3 124 164 0
-3 -124 -164 0
4 124 179 0
-4 -124 -179 0
1 125 135 0
-1 -125 -135 0
2 125 150 0
-2 -125 -150 0
3 125 165 0
-3 -125 -165 0
4 125 180 0
-4 -125 -180 0
1 126 136 0
-1 -126 -136 0
2 126 151 0
-2 -126 -151 0
3 126 166 0
-3 -126 -166 0
4 126 181 0
-4 -126 -181 0
1 127 137 0
-1 -127 -137 0
2 127 152 0
-2 -127 -152 0
3 127 167 0
-3 -127 -167 0
4 127 182 0
-4 -127 -182 0
1 128 138 0
-1 -128 -138 0
2 128 153 0
-2 -128 -153 0
3 128 168 0
-3 -128 -168 0
4 128 183 0
-4 -128 -183 0
1 129 139 0
-1 -129 -139 0
2 129 154 0
-2 -129 -154 0
3 129 169 0
-3 -129 -169 0
4 129 184 0
-4 -129 -184 0
1 130 140 0
-1 -130 -140 0
2 130 155 0
-2 -130 -155 0
3 130 170 0
-3 -130 -170 0
4 130 185 0
-4 -130 -185 0
1 131 141 0
-1 -131 -141 0
2 131 156 0
-2 -131 -156 0
3 131 171 0
-3 -131 -171 0
4 131 186 0
-4 -131 -186 0
1 132 142 0
-1 -132 -142 0
2 132 157 0
-2 -132 -157 0
3 132 172 0
-3 -132 -172 0
1 133 143 0
-1 -133 -143 0
2 133 158 0
-2 -133 -158 0
3 133 173 0
-3 -133 -173 0
1 134 144 0
-1 -134 -144 0
2 134 159 0
-2 -134 -159 0
3 134 174 0
-3 -134 -174 0
1 135 145 0
-1 -135 -145 0
2 135 160 0
-2 -135 -160 0
3 135 175 0
-3 -135 -175 0
1 136 146 0
-1 -136 -146 0
2 136 161 0
-2 -136 -161 0
3 136 176 0
-3 -136 -176 0
1 137 147 0
-1 -137 -147 0
2 137 162 0
-2 -137 -162 0
3 137 177 0
-3 -137 -177 0
1 138 148 0
-1 -138 -148 0
2 138 163 0
-2 -138 -163 0
3 138 178 0
-3 -138 -178 0
1 139 149 0
-1 -139 -149 0
2 139 164 0
-2 -139 -164 0
3 139 179 0
-3 -139 -179 0
1 140 150 0
-1 -140 -150 0
2 140 165 0
-2 -140 -165 0
3 140 180 0
-3 -140 -180 0
1 141 151 0
-1 -141 -151 0
2 141 166 0
-2 -141 -166 0
3 141 181 0
-3 -141 -181 0
1 142 152 0
-1 -142 -152 0
2 142 167 0
-2 -142 -167 0
3 142 182 0
-3 -142 -182 0
1 143 153 0
-1 -143 -153 0
2 143 168 0
-2 -143 -168 0
3 143 183 0
-3 -143 -183 0
1 144 154 0
-1 -144 -154 0
2 144 169 0
-2 -144 -169 0
3 144 184 0
-3 -144 -184 0
1 145 155 0
-1 -145 -155 0
2 145 170 0
-2 -145 -170 0
3 145 185 0
-3 -145 -185 0
1 146 156 0
-1 -146 -156 0
2 146 171 0
-2 -146 -171 0
3 146 186 0
-3 -146 -186 0
1 147 157 0
-1 -147 -157 0
2 147 172 0
-2 -147 -172 0
1 148 158 0
-1 -148 -158 0
2 148 173 0
-2 -148 -173 0
1 149 159 0
-1 -149 -159 0
2 149 174 0
-2 -149 -174 0
1 150 160 0
-1 -150 -160 0
2 150 175 0
-2 -150 -175 0
1 151 161 0
-1 -151 -161 0
2 151 176 0
-2 -151 -176 0
1 152 162 0
-1 -152 -162 0
2 152 177 0
-2 -152 -177 0
1 153 163 0
-1 -153 -163 0
2 153 178 0
-2 -153 -178 0
1 154 164 0
-1 -154 -164 0
2 154 179 0
-2 -154 -179 0
1 155 165 0
-1 -155 -165 0
2 155 180 0
-2 -155 -180 0
1 156 166 0
-1 -156 -166 0
2 156 181 0
-2 -156 -181 0
1 157 167 0
-1 -157 -167 0
2 157 182 0
-2 -157 -182 0
1 158 168 0
-1 -158 -168 0
2 158 183 0
-2 -158 -183 0
1 159 169 0
-1 -159 -169 0
2 159 184 0
-2 -159 -184 0
1 160 170 0
-1 -160 -170 0
2 160 185 0
-2 -160 -185 0
1 161 171 0
-1 -161 -171 0
2 161 186 0
-2 -161 -186 0
1 162 172 0
-1 -162 -172 0
1 163 173 0
-1 -163 -173 0
1 164 174 0
-1 -164 -174 0
1 165 175 0
-1 -165 -175 0
1 166 176 0
-1 -166 -176 0
1 167 177 0
-1 -167 -177 0
1 168 178 0
-1 -168 -178 0
1 169 179 0
-1 -169 -179 0
1 170 180 0
-1 -170 -180 0
1 171 181 0
-1 -171 -181 0
1 172 182 0
-1 -172 -182 0
1 173 183 0
-1 -173 -183 0
1 174 184 0
-1 -174 -184 0
1 175 185 0
-1 -175 -185 0
1 176 186 0
-1 -176 -186 0
