certificates/rado_a15_c5_N186.drat
1 -182 -186 0
-182 -184 -186 0
-12 182 -186 0
11 12 -186 0
182 -186 0
d -12 182 -186 0
-182 -186 0
d 1 -182 -186 0
-186 0
11 -12 0
-12 0
11 0
-1 0
-171 0
176 0
22 0
2 0
181 0
161 0
-16 0
-182 0
-27 0
-162 0
-36 0
-47 0
-136 0
-151 0
-156 0
-21 0
26 0
6 0
7 0
172 0
37 0
17 0
152 0
46 0
57 0
8 0
146 0
126 0
141 0
166 0
31 0
9 0
-51 0
-111 0
0
